VER
4

OBJSENSE
MIN

VAR
36 1
F 36

CON
90 2
SVECQRE 73
L= 17

OBJACOORD
10
0 1.0
2 1.0
5 -1.0
9 -1.0
12 -2.8284271247461903
14 -1.0
18 -2.8284271247461903
20 -1.0
27 1.0
35 1.0

ACOORD
144
1 0 1.0
2 1 1.0
3 2 1.0
4 3 1.0
5 4 1.0
6 5 1.0
7 6 1.0
8 7 1.0
9 8 1.0
10 9 1.0
11 10 1.0
12 11 1.0
13 12 1.0
14 13 1.0
15 14 1.0
16 15 1.0
17 16 1.0
18 17 1.0
19 18 1.0
20 19 1.0
21 20 1.0
22 21 1.0
23 22 1.0
24 23 1.0
25 24 1.0
26 25 1.0
27 26 1.0
28 27 1.0
29 28 1.0
30 29 1.0
31 30 1.0
32 31 1.0
33 32 1.0
34 33 1.0
35 34 1.0
36 35 1.0
37 0 1.0
37 14 1.0
38 1 1.0
38 19 1.0
39 2 1.0
39 20 1.0
40 3 1.0
40 25 1.0
41 4 1.0
41 26 1.0
42 5 1.0
42 27 1.0
43 6 1.0
43 32 1.0
44 7 1.0
44 33 1.0
45 8 1.0
45 34 1.0
46 9 1.0
46 35 1.0
51 0 1.0
51 14 1.0
56 1 1.0
56 19 1.0
57 2 1.0
57 20 1.0
62 3 1.0
62 25 1.0
63 4 1.0
63 26 1.0
64 5 1.0
64 27 1.0
69 6 1.0
69 32 1.0
70 7 1.0
70 33 1.0
71 8 1.0
71 34 1.0
72 9 1.0
72 35 1.0
73 2 -1.0
73 14 1.0
74 1 0.7071067811865476
74 3 -0.7071067811865476
74 7 -0.7071067811865476
74 19 0.7071067811865476
75 3 0.7071067811865476
75 10 -0.7071067811865476
75 16 -0.7071067811865476
75 25 0.7071067811865476
76 6 0.7071067811865476
76 21 -0.7071067811865476
76 29 -0.7071067811865476
76 32 0.7071067811865476
77 1 0.7071067811865476
77 3 -0.7071067811865476
77 7 -0.7071067811865476
77 19 0.7071067811865476
78 2 1.0
78 5 -1.0
78 9 -1.0
78 20 1.0
79 4 0.7071067811865476
79 12 -0.7071067811865476
79 18 -0.7071067811865476
79 26 0.7071067811865476
80 7 0.7071067811865476
80 23 -0.7071067811865476
80 31 -0.7071067811865476
80 33 0.7071067811865476
81 3 0.7071067811865476
81 10 -0.7071067811865476
81 16 -0.7071067811865476
81 25 0.7071067811865476
82 4 0.7071067811865476
82 12 -0.7071067811865476
82 18 -0.7071067811865476
82 26 0.7071067811865476
83 5 1.0
83 14 -1.0
83 20 -1.0
83 27 1.0
84 8 0.7071067811865476
84 25 -0.7071067811865476
84 33 -0.7071067811865476
84 34 0.7071067811865476
85 6 0.7071067811865476
85 21 -0.7071067811865476
85 29 -0.7071067811865476
85 32 0.7071067811865476
86 7 0.7071067811865476
86 23 -0.7071067811865476
86 31 -0.7071067811865476
86 33 0.7071067811865476
87 8 0.7071067811865476
87 25 -0.7071067811865476
87 33 -0.7071067811865476
87 34 0.7071067811865476
88 9 1.0
88 27 -1.0
89 0 1.0
89 2 1.0
89 5 1.0
89 9 1.0
89 14 1.0
89 20 1.0
89 27 1.0
89 35 1.0

BCOORD
1
89 1.0
